c 1 Nfa_1
c 2 Nfa_2
c 3 Nfa_3
c 4 Nfb_1
c 5 Nfb_2
c 6 Nfb_3
c 7 Nfc_1
c 8 Nfc_2
c 9 Nfc_3
c 10 Nfd_1
c 11 Nfd_2
c 12 Nfd_3
c 13 Nff_1
c 14 Nff_2
c 15 Nff_3
c 16 Nff_4
c 17  3_1
c 18  3_2
c 19  3_3
c 20  3_4
c 21 NotFa_1
c 22 NotFa_2
c 23 NotFa_3
c 24 NotFa_4
c 25 Tseitin_Variable_1
c 26 Tseitin_Variable_2
c 27 Tseitin_Variable_3
c 28 Tseitin_Variable_4
c 29 Tseitin_Variable_5
c 30 Tseitin_Variable_6
c 31 Tseitin_Variable_7
c 32 Tseitin_Variable_8
c 33 Tseitin_Variable_9
c 34 Tseitin_Variable_10
c 35 Tseitin_Variable_11
c 36 Tseitin_Variable_12
p cnf 36 115
-3 0
3 -2 0
5 -6 0
6 -5 0
-7 17 0
-8 17 0
9 17 0
7 8 -9 -17 0
17 0
-11 18 0
-13 18 0
10 18 0
12 18 0
11 13 -10 -12 -18 0
10 -12 -18 0
11 -12 -18 0
13 -12 -18 0
10 -13 -18 0
11 -13 -18 0
12 -13 -18 0
10 -18 0
11 10 -18 0
10 12 -18 0
10 13 -18 0
10 11 -18 0
11 -18 0
11 12 -18 0
11 13 -18 0
4 -7 -19 0
7 -4 -19 0
19 -4 -7 0
7 4 19 0
14 20 0
1 19 20 0
1 -14 -20 0
-14 -19 -20 0
2 21 0
-19 21 0
-2 19 -21 0
4 22 0
7 22 0
-4 -7 -22 0
5 8 22 -23 0
5 -8 -22 -23 0
-5 8 -22 -23 0
-5 -8 22 -23 0
23 -5 -8 -22 0
-5 8 22 23 0
5 -8 22 23 0
5 8 -22 23 0
1 24 0
-23 24 0
1 23 -24 0
-21 24 -25 0
21 -24 -25 0
-21 -24 25 0
21 24 25 0
-25 -15 -26 0
20 -15 -26 0
20 -25 -26 0
15 25 26 0
15 -20 26 0
-20 25 26 0
-24 27 0
-21 27 0
21 24 -27 0
2 28 0
-23 28 0
-2 23 -28 0
5 8 -29 0
5 -22 -29 0
8 -22 -29 0
29 -5 -8 0
-5 22 29 0
-8 22 29 0
6 -9 29 -30 0
6 9 -29 -30 0
-6 -9 -29 -30 0
-6 9 29 -30 0
-6 9 -29 30 0
-6 -9 29 30 0
6 9 29 30 0
6 -9 -29 30 0
1 31 0
-30 31 0
1 30 -31 0
-28 31 -32 0
28 -31 -32 0
-28 -31 32 0
28 31 32 0
3 33 0
-19 33 0
-3 19 -33 0
-27 32 33 -34 0
27 -32 33 -34 0
27 32 -33 -34 0
-27 -32 -33 -34 0
27 -32 -33 34 0
-27 32 -33 34 0
-27 -32 33 34 0
27 32 33 34 0
16 -34 0
26 -34 0
16 26 0
10 0
-12 35 0
-13 35 0
10 35 0
11 35 0
12 13 -10 -11 -35 0
35 0
-1001 0
11 0
12 0
13 0